NAME : cgl_88.11092.tour
COMMENT : Length = 11092
COMMENT : Found by LKH-3 [Keld Helsgaun] Fri Nov  8 19:20:31 2024
TYPE : TOUR
DIMENSION : 88
TOUR_SECTION
66
61
62
65
64
63
69
67
68
70
71
72
73
74
79
77
78
80
76
75
81
82
83
33
31
30
32
84
85
86
87
45
44
39
41
40
42
43
88
1
2
3
5
4
19
20
18
17
16
15
14
11
13
9
12
10
8
7
6
21
23
22
25
24
26
27
28
29
34
35
36
37
38
59
58
46
47
48
60
49
51
53
56
52
57
54
55
50
-1
EOF
